n = 15;
m = 91;
p = 1.15;

word_lens = [ 4, 4, 4, 4, 4, 4, 4, 4, 4, 4, 4, 4, 4, 4, 4, 4, 5, 5, 5, 5, 5, 5, 5, 5, 5, 5, 5, 5, 5, 5, 5, 5, 5, 5, 5, 5, 5, 5, 6, 6, 6, 6, 6, 6, 6, 6, 6, 6, 6, 6, 6, 6, 6, 6, 6, 6, 6, 6, 6, 7, 7, 7, 7, 7, 7, 7, 7, 7, 8, 8, 8, 9, 9, 9, 9, 9, 9, 9, 9, 10, 10, 10, 10, 10, 10, 10, 11, 11, 11, 11, 11 ];
words = [ "BLUE", "TONE", "TINT", "GRAY", "CYAN", "PIED", "PINK", "GREY", "SKIN", "HUES", "ROAN", "RICH", "BRAW", "SHOT", "DEEP", "HUED", "LIGHT", "TINGE", "BLACK", "GREEN", "VIVID", "TOUCH", "BROWN", "GLOSS", "PAINT", "SHADE", "WHITE", "AZURE", "SHOWY", "GAUDY", "IMBUE", "TINCT", "STAIN", "SEPIA", "FLUSH", "GUISE", "BRAVE", "JAZZY", "PURPLE", "COLOUR", "REDDEN", "MOTTLE", "YELLOW", "FLASHY", "INDIGO", "BRIGHT", "CHANGE", "SILVER", "MOTLEY", "AURIFY", "CHROMA", "ORANGE", "GINGER", "SPORTY", "ABLAZE", "RETINA", "GARISH", "VIOLET", "QUIRKY", "MAGENTA", "CRIMSON", "DISTORT", "VARIETY", "PALETTE", "TEXTURE", "PIEBALD", "FLOWERY", "REDDISH", "HUMANEYE", "REDFACED", "BICHROME", "SEMBLANCE", "VERDIGRIS", "NANOMETRE", "BRILLIANT", "MANYSIDED", "CHATOYANT", "WHIMSICAL", "EVOCATIVE", "METAMERISM", "WAVELENGTH", "APPEARANCE", "MONOCHROME", "IRIDESCENT", "POLYCHROME", "FLAMBOYANT", "FLUORESCENT", "PICTURESQUE", "PSYCHEDELIC", "ISAACNEWTON", "RESPLENDENT" ];

overlaps = [| 94, 93, 92, 92, 92, 93, 92, 93, 92, 93, 92, 92, 93, 92, 93, 93, 91, 91, 92, 92, 91, 91, 91, 91, 91, 91, 91, 92, 91, 91, 92, 91, 91, 91, 92, 92, 92, 91, 90, 90, 90, 90, 90, 89, 89, 89, 89, 90, 90, 89, 89, 89, 89, 89, 90, 89, 89, 90, 89, 88, 87, 87, 88, 88, 88, 88, 88, 88, 87, 86, 86, 85, 84, 84, 85, 84, 84, 84, 84, 83, 83, 83, 82, 83, 83, 83, 82, 82, 81, 80, 82 | 93, 94, 94, 92, 93, 93, 93, 93, 93, 93, 93, 92, 92, 93, 93, 93, 91, 92, 91, 92, 91, 92, 92, 91, 92, 91, 92, 91, 91, 91, 91, 92, 92, 91, 91, 91, 91, 91, 89, 90, 90, 91, 90, 89, 90, 89, 90, 89, 90, 89, 89, 90, 90, 90, 89, 90, 89, 90, 89, 88, 88, 88, 88, 89, 89, 88, 88, 88, 87, 86, 86, 85, 84, 86, 84, 84, 85, 84, 85, 83, 84, 83, 84, 84, 83, 83, 82, 81, 81, 82, 83 | 92, 94, 95, 92, 93, 93, 93, 92, 93, 92, 93, 93, 92, 93, 92, 92, 92, 92, 91, 91, 92, 92, 91, 91, 92, 91, 92, 91, 91, 91, 91, 93, 92, 91, 91, 91, 91, 91, 89, 89, 89, 91, 89, 89, 90, 90, 89, 89, 90, 89, 89, 89, 90, 90, 89, 91, 89, 90, 89, 88, 88, 89, 88, 89, 89, 88, 87, 88, 86, 85, 86, 84, 84, 85, 86, 84, 86, 84, 85, 83, 83, 82, 82, 84, 82, 83, 81, 81, 80, 82, 82 | 92, 92, 92, 94, 93, 92, 92, 94, 92, 92, 93, 93, 93, 92, 92, 92, 91, 91, 91, 92, 91, 91, 91, 91, 91, 91, 91, 92, 91, 92, 91, 91, 91, 91, 91, 91, 92, 92, 89, 89, 89, 89, 89, 90, 89, 90, 90, 89, 89, 90, 90, 90, 90, 90, 90, 90, 90, 89, 90, 88, 88, 88, 88, 88, 88, 88, 88, 88, 86, 86, 86, 84, 85, 84, 84, 84, 85, 84, 84, 83, 83, 84, 82, 82, 83, 83, 80, 80, 80, 81, 80 | 92, 93, 93, 93, 94, 92, 93, 93, 93, 92, 93, 93, 93, 92, 92, 92, 91, 91, 92, 91, 91, 91, 91, 91, 92, 91, 91, 91, 91, 92, 91, 92, 92, 91, 91, 91, 91, 92, 89, 89, 89, 89, 89, 90, 89, 89, 90, 89, 89, 90, 90, 90, 89, 89, 90, 90, 89, 89, 89, 88, 88, 87, 88, 88, 87, 88, 88, 87, 87, 86, 86, 85, 84, 85, 84, 85, 86, 84, 84, 82, 83, 84, 83, 83, 83, 84, 81, 80, 81, 82, 81 | 93, 93, 93, 92, 92, 94, 93, 93, 93, 93, 92, 93, 92, 92, 94, 93, 91, 92, 91, 92, 92, 91, 91, 91, 92, 92, 92, 91, 91, 91, 92, 91, 91, 92, 91, 92, 91, 91, 90, 89, 91, 89, 89, 89, 90, 89, 89, 90, 89, 89, 89, 89, 90, 89, 89, 90, 89, 90, 89, 88, 88, 88, 88, 88, 88, 89, 88, 89, 86, 87, 86, 84, 85, 84, 84, 85, 84, 84, 85, 83, 83, 84, 82, 84, 83, 82, 81, 82, 82, 81, 82 | 92, 93, 93, 92, 93, 93, 94, 92, 94, 92, 93, 93, 92, 92, 93, 92, 91, 92, 91, 91, 92, 91, 91, 91, 92, 91, 91, 91, 91, 91, 91, 92, 92, 92, 91, 91, 91, 91, 90, 89, 89, 89, 89, 89, 90, 89, 89, 89, 89, 89, 89, 89, 90, 89, 89, 90, 89, 89, 90, 88, 88, 88, 88, 88, 87, 88, 87, 88, 86, 85, 86, 84, 84, 84, 85, 84, 84, 84, 84, 82, 82, 83, 82, 83, 82, 82, 80, 81, 81, 81, 81 | 93, 93, 92, 94, 93, 93, 92, 94, 92, 93, 93, 93, 93, 92, 93, 93, 91, 92, 91, 92, 91, 91, 91, 91, 91, 91, 91, 92, 91, 92, 91, 91, 91, 91, 91, 92, 92, 91, 90, 89, 90, 89, 90, 89, 89, 90, 90, 90, 90, 90, 89, 90, 91, 90, 89, 90, 90, 89, 90, 88, 88, 88, 88, 88, 88, 88, 88, 88, 87, 87, 86, 84, 85, 85, 84, 84, 84, 84, 84, 83, 83, 83, 83, 83, 83, 82, 81, 81, 81, 80, 82 | 92, 93, 93, 92, 93, 93, 94, 92, 94, 93, 93, 93, 92, 93, 92, 92, 91, 92, 91, 91, 92, 91, 91, 92, 92, 91, 91, 91, 91, 91, 91, 92, 92, 92, 91, 92, 91, 91, 89, 89, 89, 89, 89, 89, 90, 89, 89, 90, 89, 89, 89, 89, 90, 89, 89, 90, 90, 89, 90, 88, 88, 88, 88, 87, 87, 88, 87, 88, 86, 85, 86, 84, 85, 84, 85, 85, 84, 85, 84, 83, 82, 82, 82, 84, 82, 82, 81, 81, 81, 82, 81 | 93, 93, 92, 92, 92, 93, 92, 93, 93, 94, 92, 93, 92, 93, 93, 94, 91, 91, 91, 92, 91, 92, 91, 92, 91, 92, 92, 92, 92, 91, 92, 91, 91, 92, 92, 92, 91, 91, 90, 89, 90, 89, 89, 90, 89, 89, 90, 90, 89, 89, 89, 89, 89, 89, 89, 89, 90, 89, 89, 88, 88, 88, 88, 88, 88, 88, 88, 88, 87, 86, 86, 85, 84, 84, 84, 84, 84, 84, 84, 83, 83, 83, 83, 83, 83, 82, 82, 82, 82, 81, 82 | 92, 93, 93, 93, 93, 92, 93, 93, 93, 92, 94, 93, 93, 93, 92, 92, 91, 91, 91, 92, 91, 91, 92, 91, 92, 91, 91, 92, 91, 91, 91, 91, 92, 91, 91, 91, 92, 91, 89, 90, 90, 89, 89, 89, 90, 89, 90, 89, 89, 90, 90, 91, 90, 90, 90, 90, 90, 89, 89, 88, 88, 88, 88, 88, 88, 88, 88, 88, 86, 86, 86, 84, 84, 86, 85, 84, 85, 84, 84, 83, 83, 84, 84, 83, 83, 84, 81, 80, 80, 82, 81 | 92, 92, 93, 93, 93, 93, 93, 93, 93, 93, 93, 94, 93, 93, 92, 93, 92, 91, 91, 91, 92, 92, 91, 91, 91, 91, 92, 91, 91, 91, 91, 92, 91, 91, 91, 91, 91, 91, 89, 90, 89, 89, 89, 89, 90, 90, 90, 90, 89, 90, 90, 89, 90, 89, 89, 90, 90, 89, 90, 87, 88, 88, 88, 87, 88, 88, 88, 88, 86, 86, 87, 84, 85, 84, 85, 84, 84, 85, 84, 83, 82, 83, 83, 84, 83, 82, 81, 81, 82, 81, 80 | 93, 92, 92, 93, 93, 92, 92, 93, 92, 92, 93, 93, 94, 92, 92, 92, 91, 91, 92, 91, 91, 91, 92, 91, 91, 91, 91, 92, 91, 91, 91, 91, 91, 91, 91, 91, 92, 91, 89, 89, 89, 89, 89, 89, 89, 90, 89, 89, 89, 90, 90, 90, 89, 89, 90, 90, 90, 89, 89, 88, 88, 88, 88, 88, 88, 88, 88, 88, 86, 86, 86, 84, 84, 84, 85, 84, 84, 84, 84, 83, 83, 84, 82, 82, 82, 83, 80, 80, 80, 81, 80 | 92, 93, 93, 92, 92, 92, 92, 92, 93, 93, 93, 93, 92, 94, 92, 93, 92, 91, 91, 91, 91, 92, 91, 92, 91, 92, 92, 91, 92, 91, 91, 92, 92, 91, 92, 91, 91, 91, 89, 90, 89, 90, 89, 90, 89, 90, 89, 89, 90, 89, 90, 89, 89, 90, 89, 89, 90, 90, 89, 88, 88, 89, 88, 88, 88, 87, 88, 88, 86, 85, 86, 84, 84, 84, 84, 84, 85, 84, 84, 83, 83, 82, 84, 83, 83, 83, 81, 81, 81, 81, 81 | 93, 93, 92, 92, 92, 94, 93, 93, 92, 93, 92, 92, 92, 92, 95, 94, 91, 92, 91, 92, 91, 91, 91, 91, 91, 92, 92, 92, 91, 91, 92, 91, 91, 92, 91, 92, 92, 91, 91, 89, 92, 90, 90, 89, 89, 89, 90, 90, 90, 89, 89, 90, 90, 89, 90, 90, 89, 90, 89, 88, 87, 88, 88, 89, 89, 89, 88, 89, 87, 88, 86, 85, 85, 85, 84, 85, 84, 84, 85, 84, 84, 84, 83, 84, 83, 82, 82, 82, 83, 81, 84 | 93, 93, 92, 92, 92, 93, 92, 93, 92, 94, 92, 93, 92, 93, 94, 94, 91, 91, 91, 92, 91, 92, 91, 91, 91, 92, 92, 92, 91, 92, 92, 91, 91, 91, 92, 92, 91, 91, 90, 89, 91, 89, 89, 89, 89, 89, 90, 89, 89, 89, 89, 89, 89, 89, 89, 89, 89, 89, 89, 88, 87, 88, 88, 88, 88, 88, 88, 89, 87, 87, 86, 84, 84, 84, 84, 85, 84, 84, 84, 83, 83, 83, 83, 83, 83, 82, 81, 82, 82, 80, 82 | 91, 91, 92, 91, 91, 91, 91, 91, 91, 91, 91, 92, 91, 92, 91, 91, 91, 90, 89, 89, 89, 89, 88, 89, 89, 89, 90, 88, 89, 89, 89, 90, 89, 89, 89, 89, 88, 88, 87, 87, 86, 88, 87, 87, 88, 88, 87, 87, 87, 87, 87, 87, 88, 87, 87, 87, 88, 88, 87, 85, 84, 85, 85, 85, 85, 85, 84, 85, 82, 82, 83, 80, 81, 80, 82, 80, 81, 81, 80, 78, 79, 77, 78, 79, 78, 78, 76, 76, 76, 76, 76 | 91, 92, 92, 91, 91, 92, 92, 92, 92, 91, 91, 91, 91, 91, 92, 91, 90, 91, 88, 90, 89, 89, 89, 89, 90, 89, 90, 89, 88, 89, 89, 90, 90, 89, 88, 90, 89, 88, 87, 86, 88, 88, 87, 86, 88, 88, 88, 87, 87, 87, 86, 88, 88, 87, 87, 88, 87, 88, 87, 86, 85, 85, 85, 86, 86, 85, 84, 85, 83, 83, 83, 81, 81, 82, 81, 81, 81, 80, 81, 79, 80, 79, 78, 80, 78, 78, 77, 77, 76, 77, 78 | 92, 91, 91, 91, 92, 91, 91, 91, 91, 91, 91, 91, 92, 91, 91, 91, 89, 88, 91, 88, 88, 89, 89, 89, 89, 89, 88, 89, 88, 89, 89, 89, 89, 89, 89, 88, 89, 89, 87, 87, 86, 87, 87, 87, 86, 87, 87, 87, 87, 87, 87, 87, 86, 86, 88, 87, 87, 87, 87, 85, 84, 84, 84, 85, 84, 85, 84, 84, 82, 83, 83, 81, 80, 80, 81, 80, 81, 81, 80, 78, 78, 79, 78, 78, 78, 79, 76, 76, 76, 76, 76 | 92, 92, 91, 92, 91, 92, 91, 92, 91, 92, 92, 91, 91, 91, 92, 92, 89, 90, 88, 92, 88, 88, 89, 89, 89, 89, 89, 90, 88, 89, 89, 89, 89, 89, 88, 90, 90, 88, 88, 87, 89, 87, 87, 86, 87, 87, 88, 88, 87, 87, 87, 88, 89, 87, 87, 88, 87, 87, 87, 86, 85, 84, 85, 86, 86, 85, 85, 85, 84, 84, 83, 82, 82, 83, 80, 81, 80, 80, 81, 80, 80, 80, 79, 80, 79, 78, 78, 77, 77, 77, 79 | 91, 91, 92, 91, 91, 92, 92, 91, 92, 91, 91, 92, 91, 91, 91, 91, 89, 89, 88, 88, 92, 88, 88, 88, 89, 89, 89, 88, 88, 89, 89, 89, 89, 89, 88, 89, 89, 88, 86, 86, 87, 86, 86, 86, 88, 87, 86, 88, 86, 87, 86, 86, 87, 86, 86, 87, 87, 88, 87, 84, 85, 85, 86, 84, 84, 85, 84, 86, 82, 83, 83, 80, 83, 80, 81, 81, 80, 81, 82, 78, 78, 77, 77, 80, 77, 77, 75, 76, 76, 76, 76 | 91, 92, 92, 91, 91, 91, 91, 91, 91, 92, 91, 92, 91, 92, 91, 92, 89, 89, 89, 88, 88, 91, 89, 89, 89, 89, 89, 89, 89, 89, 89, 90, 89, 88, 89, 89, 88, 88, 87, 88, 86, 88, 87, 87, 87, 87, 87, 86, 87, 87, 88, 87, 86, 87, 86, 87, 87, 87, 87, 84, 85, 85, 84, 85, 85, 84, 84, 84, 83, 82, 83, 80, 80, 80, 80, 80, 82, 80, 81, 78, 78, 78, 80, 78, 79, 78, 77, 77, 76, 76, 76 | 91, 92, 91, 91, 91, 91, 91, 91, 91, 91, 92, 91, 92, 91, 91, 91, 88, 89, 89, 89, 88, 89, 91, 89, 89, 88, 89, 89, 89, 88, 89, 89, 89, 88, 88, 88, 89, 88, 87, 88, 87, 87, 87, 86, 87, 87, 87, 87, 87, 87, 87, 88, 87, 87, 87, 87, 87, 87, 87, 84, 85, 85, 84, 84, 84, 84, 85, 84, 82, 82, 83, 80, 80, 81, 81, 80, 80, 80, 80, 78, 78, 78, 80, 78, 79, 79, 76, 76, 75, 77, 76 | 91, 91, 91, 91, 91, 91, 91, 91, 92, 92, 91, 91, 91, 92, 91, 91, 89, 89, 89, 89, 88, 89, 89, 92, 88, 89, 88, 88, 90, 89, 88, 88, 89, 89, 90, 90, 88, 88, 87, 88, 86, 87, 88, 88, 87, 87, 87, 88, 87, 86, 87, 87, 87, 88, 87, 86, 88, 87, 86, 84, 85, 85, 84, 84, 84, 84, 85, 85, 82, 82, 82, 81, 81, 80, 80, 80, 80, 81, 80, 78, 78, 77, 79, 78, 79, 78, 77, 76, 76, 76, 76 | 91, 92, 92, 91, 92, 92, 92, 91, 92, 91, 92, 91, 91, 91, 91, 91, 89, 90, 89, 89, 89, 89, 89, 88, 91, 89, 89, 89, 88, 89, 89, 90, 90, 90, 88, 89, 89, 89, 87, 86, 87, 87, 86, 87, 88, 87, 87, 87, 87, 87, 87, 87, 87, 87, 87, 88, 87, 87, 87, 86, 85, 85, 85, 86, 85, 85, 84, 84, 83, 82, 82, 80, 80, 81, 82, 81, 82, 81, 81, 79, 79, 80, 78, 79, 78, 79, 76, 76, 76, 78, 77 | 91, 91, 91, 91, 91, 92, 91, 91, 91, 92, 91, 91, 91, 92, 92, 92, 89, 89, 89, 89, 89, 89, 88, 89, 89, 91, 89, 89, 89, 89, 89, 88, 89, 90, 89, 89, 89, 89, 87, 86, 88, 87, 87, 88, 87, 87, 88, 87, 87, 87, 87, 87, 87, 87, 88, 87, 88, 87, 86, 85, 84, 85, 85, 85, 85, 85, 84, 86, 84, 84, 83, 81, 81, 81, 80, 82, 81, 81, 81, 79, 79, 80, 78, 79, 78, 78, 76, 76, 77, 77, 77 | 91, 92, 92, 91, 91, 92, 91, 91, 91, 92, 91, 92, 91, 92, 92, 92, 90, 90, 88, 89, 89, 89, 89, 88, 89, 89, 91, 89, 89, 88, 89, 90, 89, 89, 89, 89, 89, 88, 87, 86, 87, 88, 87, 87, 87, 88, 87, 87, 87, 87, 87, 87, 87, 87, 87, 88, 87, 88, 87, 85, 84, 85, 85, 86, 86, 85, 85, 85, 83, 83, 83, 80, 81, 81, 81, 80, 81, 81, 81, 79, 80, 78, 78, 80, 78, 78, 76, 77, 77, 77, 77 | 92, 91, 91, 92, 91, 91, 91, 92, 91, 92, 92, 91, 92, 91, 92, 92, 88, 89, 89, 90, 88, 89, 89, 88, 89, 89, 89, 91, 88, 89, 89, 88, 89, 89, 89, 89, 90, 90, 88, 87, 88, 87, 87, 87, 86, 87, 87, 87, 87, 88, 87, 88, 87, 87, 88, 88, 87, 87, 87, 85, 84, 84, 85, 85, 86, 85, 85, 85, 84, 84, 83, 81, 81, 81, 80, 80, 80, 80, 81, 79, 79, 80, 78, 79, 78, 78, 77, 77, 76, 76, 77 | 91, 91, 91, 91, 91, 91, 91, 91, 91, 92, 91, 91, 91, 92, 91, 91, 89, 88, 88, 88, 88, 89, 89, 90, 88, 89, 89, 88, 91, 89, 88, 88, 89, 89, 89, 89, 88, 89, 86, 87, 86, 87, 88, 88, 87, 87, 87, 87, 87, 87, 87, 87, 86, 88, 86, 86, 87, 87, 87, 84, 85, 85, 84, 84, 84, 84, 85, 85, 83, 82, 83, 80, 80, 80, 80, 80, 81, 81, 80, 78, 78, 77, 79, 78, 79, 78, 76, 76, 76, 76, 76 | 91, 91, 91, 92, 92, 91, 91, 92, 91, 91, 91, 91, 91, 91, 91, 92, 89, 89, 89, 89, 89, 89, 88, 89, 89, 89, 88, 89, 89, 91, 89, 88, 89, 89, 89, 89, 89, 89, 87, 87, 87, 86, 87, 87, 87, 87, 87, 86, 87, 88, 87, 87, 87, 87, 87, 87, 87, 86, 87, 85, 84, 84, 85, 84, 84, 85, 84, 85, 83, 83, 82, 80, 80, 80, 80, 81, 81, 80, 80, 78, 78, 79, 77, 78, 78, 79, 76, 76, 76, 76, 76 | 92, 91, 91, 91, 91, 92, 91, 91, 91, 92, 91, 91, 91, 91, 92, 92, 89, 89, 89, 89, 89, 89, 89, 88, 89, 89, 89, 89, 88, 89, 91, 89, 89, 89, 89, 90, 89, 88, 87, 87, 87, 87, 87, 86, 87, 87, 87, 87, 87, 87, 87, 87, 87, 86, 87, 87, 87, 87, 87, 85, 85, 84, 85, 85, 85, 85, 84, 85, 84, 83, 84, 81, 81, 81, 81, 81, 80, 81, 81, 80, 78, 78, 79, 79, 78, 78, 76, 77, 76, 76, 76 | 91, 92, 93, 91, 92, 91, 92, 91, 92, 91, 91, 92, 91, 92, 91, 91, 90, 90, 89, 89, 89, 90, 89, 88, 90, 88, 90, 88, 88, 88, 89, 92, 90, 89, 88, 89, 88, 88, 86, 87, 87, 88, 86, 86, 88, 88, 87, 87, 87, 87, 87, 87, 87, 87, 86, 88, 87, 88, 87, 85, 85, 86, 85, 86, 86, 84, 84, 84, 82, 82, 83, 80, 80, 81, 82, 80, 82, 81, 81, 79, 79, 78, 78, 80, 78, 79, 77, 77, 76, 78, 77 | 91, 92, 92, 91, 92, 91, 92, 91, 92, 91, 92, 91, 91, 92, 91, 91, 89, 90, 89, 89, 89, 89, 89, 89, 90, 89, 89, 89, 89, 89, 89, 90, 91, 90, 89, 89, 89, 89, 86, 86, 87, 87, 86, 87, 88, 87, 87, 87, 87, 87, 87, 87, 87, 87, 87, 88, 88, 87, 87, 86, 85, 86, 85, 85, 85, 85, 84, 85, 83, 82, 82, 81, 81, 81, 82, 81, 82, 81, 81, 79, 79, 79, 78, 80, 77, 79, 76, 76, 76, 78, 77 | 91, 91, 91, 91, 91, 92, 92, 91, 92, 92, 91, 91, 91, 91, 92, 91, 89, 89, 89, 89, 89, 88, 88, 89, 90, 90, 89, 89, 89, 89, 89, 89, 90, 91, 89, 90, 89, 89, 88, 86, 87, 87, 87, 87, 87, 87, 87, 88, 87, 87, 87, 87, 87, 87, 88, 88, 88, 87, 87, 85, 85, 85, 85, 86, 85, 86, 84, 85, 83, 83, 83, 81, 81, 81, 81, 81, 80, 81, 81, 80, 79, 80, 78, 80, 78, 78, 76, 77, 77, 77, 77 | 92, 91, 91, 91, 91, 91, 91, 91, 91, 92, 91, 91, 91, 92, 91, 92, 89, 88, 89, 88, 88, 89, 88, 90, 88, 89, 89, 89, 89, 89, 89, 88, 89, 89, 91, 89, 88, 88, 87, 87, 86, 87, 87, 88, 86, 87, 87, 87, 87, 87, 87, 86, 86, 87, 87, 86, 87, 87, 87, 84, 84, 84, 84, 84, 84, 84, 85, 85, 83, 82, 82, 80, 80, 80, 80, 80, 80, 81, 80, 78, 78, 77, 78, 78, 78, 78, 77, 76, 76, 76, 76 | 92, 91, 91, 91, 91, 92, 91, 92, 92, 92, 91, 91, 91, 91, 92, 92, 89, 90, 88, 90, 89, 89, 88, 90, 89, 89, 89, 89, 89, 89, 90, 89, 89, 90, 89, 91, 89, 88, 87, 87, 87, 87, 87, 87, 88, 87, 87, 88, 87, 87, 86, 87, 88, 87, 87, 87, 88, 87, 87, 85, 85, 85, 85, 85, 85, 85, 84, 85, 83, 83, 83, 81, 82, 80, 80, 81, 80, 81, 81, 79, 79, 78, 78, 80, 78, 77, 77, 78, 77, 76, 77 | 92, 91, 91, 92, 91, 91, 91, 92, 91, 91, 92, 91, 92, 91, 92, 91, 88, 89, 89, 90, 89, 88, 89, 88, 89, 89, 89, 90, 88, 89, 89, 88, 89, 89, 88, 89, 91, 89, 87, 87, 88, 87, 87, 87, 86, 87, 87, 88, 87, 87, 87, 88, 87, 87, 88, 88, 87, 87, 87, 85, 84, 84, 86, 85, 85, 85, 85, 85, 83, 84, 83, 81, 81, 81, 81, 80, 80, 80, 82, 79, 79, 80, 78, 79, 78, 79, 76, 76, 76, 76, 77 | 91, 91, 91, 92, 92, 91, 91, 91, 91, 91, 91, 91, 91, 91, 91, 91, 88, 88, 89, 88, 88, 88, 88, 88, 89, 89, 88, 90, 89, 89, 88, 88, 89, 89, 88, 88, 89, 92, 86, 86, 86, 86, 87, 87, 86, 86, 87, 86, 87, 87, 87, 87, 86, 87, 88, 87, 87, 86, 87, 85, 84, 84, 85, 84, 84, 84, 84, 84, 83, 82, 82, 80, 80, 80, 80, 80, 81, 80, 80, 78, 78, 79, 77, 77, 78, 79, 75, 75, 76, 76, 75 | 90, 89, 89, 89, 89, 90, 90, 90, 89, 90, 89, 89, 89, 89, 91, 90, 87, 87, 87, 88, 86, 87, 87, 87, 87, 87, 87, 88, 86, 87, 87, 86, 86, 88, 87, 87, 87, 86, 87, 85, 85, 84, 85, 84, 84, 84, 84, 85, 84, 84, 84, 84, 84, 85, 84, 84, 84, 84, 84, 81, 81, 81, 82, 83, 83, 83, 82, 82, 80, 80, 79, 77, 77, 77, 77, 76, 76, 76, 76, 74, 74, 76, 74, 74, 75, 73, 72, 73, 72, 71, 73 | 90, 90, 89, 89, 89, 89, 89, 89, 89, 89, 90, 90, 89, 90, 89, 89, 87, 86, 87, 87, 86, 88, 88, 88, 86, 86, 86, 87, 87, 87, 87, 87, 86, 86, 87, 87, 87, 86, 85, 87, 84, 85, 85, 84, 84, 84, 84, 84, 85, 84, 85, 85, 84, 85, 84, 84, 84, 85, 84, 81, 83, 82, 81, 81, 82, 81, 83, 81, 79, 79, 80, 76, 76, 77, 77, 76, 77, 76, 77, 73, 73, 74, 76, 74, 76, 74, 73, 72, 72, 72, 71 | 90, 90, 89, 89, 89, 91, 89, 90, 89, 90, 90, 89, 89, 89, 92, 91, 86, 88, 86, 89, 87, 86, 87, 86, 87, 88, 87, 88, 86, 87, 87, 87, 87, 87, 86, 87, 88, 86, 85, 84, 88, 84, 84, 84, 85, 84, 85, 85, 84, 84, 84, 85, 85, 84, 84, 85, 84, 84, 84, 82, 82, 82, 82, 83, 83, 83, 82, 84, 80, 82, 80, 78, 78, 79, 76, 79, 76, 76, 77, 75, 75, 76, 75, 76, 74, 73, 73, 72, 73, 72, 75 | 90, 91, 91, 89, 89, 89, 89, 89, 89, 89, 89, 89, 89, 90, 90, 89, 88, 88, 87, 87, 86, 88, 87, 87, 87, 87, 88, 87, 87, 86, 87, 88, 87, 87, 87, 87, 87, 86, 84, 85, 84, 87, 85, 84, 84, 84, 84, 84, 86, 84, 84, 84, 84, 85, 84, 85, 84, 86, 84, 83, 82, 83, 82, 84, 84, 82, 82, 81, 80, 79, 80, 77, 76, 78, 77, 76, 78, 76, 78, 76, 75, 74, 76, 75, 75, 75, 73, 72, 72, 72, 73 | 90, 90, 89, 89, 89, 89, 89, 90, 89, 89, 89, 89, 89, 89, 90, 89, 87, 87, 87, 87, 86, 87, 87, 88, 86, 87, 87, 87, 88, 87, 87, 86, 86, 87, 87, 87, 87, 87, 85, 85, 84, 85, 87, 85, 84, 84, 84, 85, 86, 84, 84, 84, 84, 84, 85, 84, 84, 85, 84, 81, 81, 81, 82, 83, 82, 82, 84, 81, 80, 79, 79, 77, 76, 77, 77, 76, 76, 77, 77, 74, 75, 74, 75, 74, 76, 75, 72, 71, 72, 72, 72 | 89, 89, 89, 90, 90, 89, 89, 89, 89, 90, 89, 89, 89, 90, 89, 89, 87, 86, 87, 86, 86, 87, 86, 88, 87, 88, 87, 87, 88, 87, 86, 86, 87, 87, 88, 87, 87, 87, 84, 84, 84, 84, 85, 86, 84, 84, 84, 84, 84, 85, 84, 84, 84, 84, 85, 84, 85, 84, 84, 82, 81, 81, 82, 82, 81, 82, 82, 82, 80, 79, 79, 77, 76, 76, 77, 77, 77, 77, 76, 74, 74, 74, 73, 73, 74, 75, 72, 71, 72, 72, 71 | 89, 90, 90, 89, 89, 90, 90, 89, 90, 89, 90, 90, 89, 89, 89, 89, 88, 88, 86, 87, 88, 87, 87, 87, 88, 87, 87, 86, 87, 87, 87, 88, 88, 87, 86, 88, 86, 86, 84, 84, 85, 84, 84, 84, 87, 85, 84, 84, 84, 84, 84, 85, 86, 84, 84, 85, 85, 85, 84, 82, 83, 83, 82, 81, 81, 82, 81, 83, 79, 79, 80, 76, 78, 77, 78, 78, 76, 77, 77, 74, 74, 73, 75, 76, 74, 74, 71, 71, 72, 72, 72 | 89, 89, 90, 90, 89, 89, 89, 90, 89, 89, 89, 90, 90, 90, 89, 89, 88, 88, 87, 87, 87, 87, 87, 87, 87, 87, 88, 87, 87, 87, 87, 88, 87, 87, 87, 87, 87, 86, 84, 84, 84, 84, 84, 84, 85, 86, 84, 84, 84, 84, 84, 84, 85, 84, 84, 85, 85, 84, 84, 82, 82, 83, 82, 82, 82, 82, 81, 82, 79, 79, 80, 76, 78, 76, 78, 76, 77, 77, 76, 74, 74, 73, 74, 75, 74, 74, 71, 72, 71, 71, 71 | 89, 90, 89, 90, 90, 89, 89, 90, 89, 90, 90, 90, 89, 89, 90, 90, 87, 88, 87, 88, 86, 87, 87, 87, 87, 88, 87, 87, 87, 87, 87, 87, 87, 87, 87, 87, 87, 87, 84, 84, 85, 84, 84, 84, 84, 84, 86, 84, 84, 84, 85, 85, 85, 84, 85, 85, 85, 84, 84, 83, 82, 81, 82, 82, 82, 82, 81, 82, 80, 80, 80, 78, 76, 78, 76, 77, 78, 77, 77, 74, 76, 76, 75, 75, 74, 74, 72, 72, 72, 73, 72 | 90, 89, 89, 89, 89, 90, 89, 90, 90, 90, 89, 90, 89, 89, 90, 89, 87, 87, 87, 88, 88, 86, 87, 88, 87, 87, 87, 87, 87, 86, 87, 87, 87, 88, 87, 88, 88, 86, 85, 84, 85, 84, 85, 84, 84, 84, 84, 86, 84, 84, 84, 84, 85, 84, 84, 85, 85, 85, 84, 81, 82, 82, 83, 82, 82, 82, 82, 83, 79, 80, 80, 77, 79, 77, 78, 77, 76, 77, 78, 75, 75, 74, 74, 76, 74, 73, 72, 72, 72, 72, 73 | 90, 90, 90, 89, 89, 89, 89, 90, 89, 89, 89, 89, 89, 90, 90, 89, 87, 87, 87, 87, 86, 87, 87, 87, 87, 87, 87, 87, 87, 87, 87, 87, 87, 87, 87, 87, 87, 87, 84, 85, 84, 86, 86, 84, 84, 84, 84, 84, 86, 84, 84, 84, 84, 85, 84, 84, 84, 85, 84, 82, 82, 82, 82, 83, 83, 82, 83, 81, 80, 79, 80, 77, 76, 78, 77, 77, 77, 76, 77, 76, 75, 74, 76, 74, 76, 75, 72, 72, 72, 72, 72 | 89, 89, 89, 90, 90, 89, 89, 90, 89, 89, 90, 90, 90, 89, 89, 89, 87, 87, 87, 87, 87, 87, 87, 86, 87, 87, 87, 88, 87, 88, 87, 87, 87, 87, 87, 87, 87, 87, 84, 84, 84, 84, 84, 85, 84, 84, 84, 84, 84, 86, 84, 84, 84, 84, 84, 85, 85, 84, 85, 82, 82, 82, 83, 81, 82, 82, 82, 82, 80, 80, 79, 76, 77, 76, 77, 77, 77, 77, 76, 74, 73, 75, 73, 74, 74, 75, 72, 72, 71, 72, 71 | 89, 89, 89, 90, 90, 89, 89, 89, 89, 89, 90, 90, 90, 90, 89, 89, 87, 86, 87, 87, 86, 88, 87, 87, 87, 87, 87, 87, 87, 87, 87, 87, 87, 87, 87, 86, 87, 87, 84, 85, 84, 84, 84, 84, 84, 84, 85, 84, 84, 84, 86, 85, 84, 84, 84, 84, 85, 84, 84, 82, 83, 82, 82, 81, 81, 81, 82, 82, 80, 80, 80, 77, 76, 77, 76, 76, 78, 77, 77, 75, 74, 75, 76, 74, 76, 75, 72, 71, 72, 72, 71 | 89, 90, 89, 90, 90, 89, 89, 90, 89, 89, 91, 89, 90, 89, 90, 89, 87, 88, 87, 88, 86, 87, 88, 87, 87, 87, 87, 88, 87, 87, 87, 87, 87, 87, 86, 87, 88, 87, 84, 85, 85, 84, 84, 84, 85, 84, 85, 84, 84, 84, 85, 86, 86, 84, 85, 85, 85, 84, 84, 83, 82, 82, 82, 82, 82, 82, 82, 82, 80, 80, 80, 77, 77, 79, 77, 77, 77, 76, 77, 75, 75, 76, 76, 75, 75, 75, 72, 72, 71, 73, 73 | 89, 90, 90, 90, 89, 90, 90, 91, 90, 89, 90, 90, 89, 89, 90, 89, 88, 88, 86, 89, 87, 86, 87, 87, 87, 87, 87, 87, 86, 87, 87, 87, 87, 87, 86, 88, 87, 86, 84, 84, 85, 84, 84, 84, 86, 85, 85, 85, 84, 84, 84, 86, 87, 84, 84, 85, 85, 84, 84, 83, 82, 82, 82, 82, 82, 82, 82, 82, 80, 80, 80, 77, 79, 78, 77, 77, 76, 76, 77, 75, 75, 75, 74, 76, 74, 73, 72, 72, 72, 72, 73 | 89, 90, 90, 90, 89, 89, 89, 90, 89, 89, 90, 89, 89, 90, 89, 89, 87, 87, 86, 87, 86, 87, 87, 88, 87, 87, 87, 87, 88, 87, 86, 87, 87, 87, 87, 87, 87, 87, 85, 85, 84, 85, 84, 84, 84, 84, 84, 84, 85, 84, 84, 84, 84, 86, 84, 84, 84, 84, 84, 81, 82, 83, 82, 82, 82, 81, 82, 82, 79, 79, 79, 76, 77, 77, 76, 76, 77, 76, 76, 74, 73, 74, 75, 74, 75, 74, 72, 72, 72, 72, 72 | 90, 89, 89, 90, 90, 89, 89, 89, 89, 89, 90, 89, 90, 89, 90, 89, 87, 87, 88, 87, 86, 86, 87, 87, 87, 88, 87, 88, 86, 87, 87, 86, 87, 88, 87, 87, 88, 88, 84, 84, 84, 84, 85, 85, 84, 84, 85, 84, 84, 84, 84, 85, 84, 84, 87, 85, 84, 84, 84, 83, 81, 81, 82, 83, 82, 83, 82, 81, 80, 80, 79, 78, 76, 77, 78, 77, 77, 77, 77, 75, 75, 76, 73, 74, 74, 76, 72, 71, 72, 72, 72 | 89, 90, 91, 90, 90, 90, 90, 90, 90, 89, 90, 90, 90, 89, 90, 89, 87, 88, 87, 88, 87, 87, 87, 86, 88, 87, 88, 88, 86, 87, 87, 88, 88, 88, 86, 87, 88, 87, 84, 84, 85, 85, 84, 84, 85, 85, 85, 85, 84, 85, 84, 85, 85, 84, 85, 86, 85, 85, 84, 83, 82, 83, 83, 83, 83, 82, 82, 82, 80, 80, 80, 77, 78, 79, 78, 77, 78, 77, 78, 76, 75, 76, 74, 76, 74, 75, 72, 72, 72, 73, 73 | 89, 89, 89, 90, 89, 89, 89, 90, 90, 90, 90, 90, 90, 90, 89, 89, 88, 87, 87, 87, 87, 87, 87, 88, 87, 88, 87, 87, 87, 87, 87, 87, 88, 88, 87, 88, 87, 87, 84, 84, 84, 84, 84, 85, 85, 85, 85, 85, 84, 85, 85, 85, 85, 84, 84, 85, 86, 84, 84, 82, 82, 82, 82, 81, 81, 82, 81, 83, 79, 79, 80, 76, 78, 76, 77, 77, 77, 78, 76, 75, 74, 75, 74, 75, 74, 74, 71, 72, 72, 72, 71 | 90, 90, 90, 89, 89, 90, 89, 89, 89, 89, 89, 89, 89, 90, 90, 89, 88, 88, 87, 87, 88, 87, 87, 87, 87, 87, 88, 87, 87, 86, 87, 88, 87, 87, 87, 87, 87, 86, 84, 85, 84, 86, 85, 84, 85, 84, 84, 85, 85, 84, 84, 84, 84, 84, 84, 85, 84, 86, 84, 82, 82, 83, 83, 83, 83, 82, 82, 82, 79, 79, 80, 77, 77, 77, 78, 76, 77, 77, 79, 75, 75, 74, 75, 75, 75, 74, 72, 72, 72, 72, 72 | 89, 89, 89, 90, 89, 89, 90, 90, 90, 89, 89, 90, 89, 89, 89, 89, 87, 87, 87, 87, 87, 87, 87, 86, 87, 86, 87, 87, 87, 87, 87, 87, 87, 87, 87, 87, 87, 87, 84, 84, 84, 84, 84, 84, 84, 84, 84, 84, 84, 85, 84, 84, 84, 84, 84, 84, 84, 84, 86, 81, 82, 82, 82, 81, 82, 81, 82, 82, 79, 79, 79, 76, 77, 76, 77, 76, 76, 76, 76, 74, 73, 73, 73, 74, 74, 73, 71, 72, 71, 71, 71 | 88, 88, 88, 88, 88, 88, 88, 88, 88, 88, 88, 87, 88, 88, 88, 88, 85, 86, 85, 86, 84, 84, 84, 84, 86, 85, 85, 85, 84, 85, 85, 85, 86, 85, 84, 85, 85, 85, 81, 81, 82, 83, 81, 82, 82, 82, 83, 81, 82, 82, 82, 83, 83, 81, 83, 83, 82, 82, 81, 82, 79, 79, 80, 80, 80, 79, 78, 78, 77, 76, 75, 74, 72, 75, 73, 74, 75, 73, 74, 72, 72, 72, 70, 70, 69, 72, 67, 67, 66, 69, 68 | 87, 88, 88, 88, 88, 88, 88, 88, 88, 88, 88, 88, 88, 88, 87, 87, 84, 85, 84, 85, 85, 85, 85, 85, 85, 84, 84, 84, 85, 84, 85, 85, 85, 85, 84, 85, 84, 84, 81, 83, 82, 82, 81, 81, 83, 82, 82, 82, 82, 82, 83, 82, 82, 82, 81, 82, 82, 82, 82, 79, 81, 80, 79, 78, 78, 78, 79, 79, 75, 75, 77, 73, 74, 74, 73, 73, 73, 74, 73, 71, 69, 70, 72, 71, 71, 70, 68, 67, 67, 68, 67 | 87, 88, 89, 88, 87, 88, 88, 88, 88, 88, 88, 88, 88, 89, 88, 88, 85, 85, 84, 84, 85, 85, 85, 85, 85, 85, 85, 84, 85, 84, 84, 86, 86, 85, 84, 85, 84, 84, 81, 82, 82, 83, 81, 81, 83, 83, 81, 82, 82, 82, 82, 82, 82, 83, 81, 83, 82, 83, 82, 79, 80, 82, 80, 80, 80, 79, 79, 80, 75, 76, 76, 72, 74, 73, 74, 73, 74, 73, 73, 71, 69, 69, 70, 72, 70, 70, 68, 68, 67, 68, 68 | 88, 88, 88, 88, 88, 88, 88, 88, 88, 88, 88, 88, 88, 88, 88, 88, 85, 85, 84, 85, 86, 84, 84, 84, 85, 85, 85, 85, 84, 85, 85, 85, 85, 85, 84, 85, 86, 85, 82, 81, 82, 82, 82, 82, 82, 82, 82, 83, 82, 83, 82, 82, 82, 82, 82, 83, 82, 83, 82, 80, 79, 80, 81, 80, 80, 79, 79, 79, 76, 76, 76, 73, 74, 74, 74, 73, 74, 73, 75, 71, 71, 71, 69, 71, 70, 70, 67, 68, 67, 68, 68 | 88, 89, 89, 88, 88, 88, 88, 88, 87, 88, 88, 87, 88, 88, 89, 88, 85, 86, 85, 86, 84, 85, 84, 84, 86, 85, 86, 85, 84, 84, 85, 86, 85, 86, 84, 85, 85, 84, 83, 81, 83, 84, 83, 82, 81, 82, 82, 82, 83, 81, 81, 82, 82, 82, 83, 83, 81, 83, 81, 80, 78, 80, 80, 83, 81, 80, 79, 79, 77, 77, 75, 74, 72, 75, 74, 73, 74, 72, 75, 72, 72, 72, 69, 71, 70, 71, 68, 68, 68, 68, 70 | 88, 89, 89, 88, 87, 88, 87, 88, 87, 88, 88, 88, 88, 88, 89, 88, 85, 86, 84, 86, 84, 85, 84, 84, 85, 85, 86, 86, 84, 84, 85, 86, 85, 85, 84, 85, 85, 84, 83, 82, 83, 84, 82, 81, 81, 82, 82, 82, 83, 82, 81, 82, 82, 82, 82, 83, 81, 83, 82, 80, 78, 80, 80, 81, 83, 79, 79, 79, 77, 77, 76, 73, 73, 75, 73, 72, 73, 72, 74, 72, 71, 71, 70, 72, 70, 69, 69, 69, 67, 67, 69 | 88, 88, 88, 88, 88, 89, 88, 88, 88, 88, 88, 88, 88, 87, 89, 88, 85, 85, 85, 85, 85, 84, 84, 84, 85, 85, 85, 85, 84, 85, 85, 84, 85, 86, 84, 85, 85, 84, 83, 81, 83, 82, 82, 82, 82, 82, 82, 82, 82, 82, 81, 82, 82, 81, 83, 82, 82, 82, 81, 79, 78, 79, 79, 80, 79, 81, 79, 80, 76, 77, 76, 74, 73, 73, 74, 74, 72, 73, 73, 70, 70, 72, 69, 71, 70, 70, 67, 67, 68, 67, 68 | 88, 88, 87, 88, 88, 88, 87, 88, 87, 88, 88, 88, 88, 88, 88, 88, 84, 84, 84, 85, 84, 84, 85, 85, 84, 84, 85, 85, 85, 84, 84, 84, 84, 84, 85, 84, 85, 84, 82, 83, 82, 82, 84, 82, 81, 81, 81, 82, 83, 82, 82, 82, 82, 82, 82, 82, 81, 82, 82, 78, 79, 79, 79, 79, 79, 79, 81, 79, 76, 76, 76, 73, 73, 73, 73, 72, 72, 72, 73, 70, 70, 70, 71, 70, 71, 70, 68, 67, 67, 67, 68 | 88, 88, 88, 88, 87, 89, 88, 88, 88, 88, 88, 88, 88, 88, 89, 89, 85, 85, 84, 85, 86, 84, 84, 85, 84, 86, 85, 85, 85, 85, 85, 84, 85, 85, 85, 85, 85, 84, 82, 81, 84, 81, 81, 82, 83, 82, 82, 83, 81, 82, 82, 82, 82, 82, 81, 82, 83, 82, 82, 78, 79, 80, 79, 79, 79, 80, 79, 82, 76, 78, 76, 73, 75, 73, 73, 75, 72, 73, 73, 71, 70, 70, 70, 72, 70, 68, 67, 68, 68, 67, 68 | 87, 87, 86, 86, 87, 86, 86, 87, 86, 87, 86, 86, 86, 86, 87, 87, 82, 83, 82, 84, 82, 83, 82, 82, 83, 84, 83, 84, 83, 83, 84, 82, 83, 83, 83, 83, 83, 83, 80, 79, 80, 80, 80, 80, 79, 79, 80, 79, 80, 80, 80, 80, 80, 79, 80, 80, 79, 79, 79, 77, 75, 75, 76, 77, 77, 76, 76, 76, 75, 73, 73, 71, 68, 71, 68, 70, 70, 69, 70, 68, 67, 68, 67, 66, 66, 66, 63, 63, 63, 63, 64 | 86, 86, 85, 86, 86, 87, 85, 87, 85, 86, 86, 86, 86, 85, 88, 87, 82, 83, 83, 84, 83, 82, 82, 82, 82, 84, 83, 84, 82, 83, 83, 82, 82, 83, 82, 83, 84, 82, 80, 79, 82, 79, 79, 79, 79, 79, 80, 80, 79, 80, 80, 80, 80, 79, 80, 80, 79, 79, 79, 76, 75, 76, 76, 77, 77, 77, 76, 78, 73, 76, 73, 70, 70, 70, 68, 71, 69, 68, 70, 67, 66, 68, 66, 68, 66, 65, 63, 63, 64, 63, 64 | 86, 86, 86, 86, 86, 86, 86, 86, 86, 86, 86, 87, 86, 86, 86, 86, 83, 83, 83, 83, 83, 83, 83, 82, 82, 83, 83, 83, 83, 82, 84, 83, 82, 83, 82, 83, 83, 82, 79, 80, 80, 80, 79, 79, 80, 80, 80, 80, 80, 79, 80, 80, 80, 79, 79, 80, 80, 80, 79, 75, 77, 76, 76, 75, 76, 76, 76, 76, 73, 73, 75, 70, 70, 70, 69, 69, 69, 70, 70, 67, 65, 66, 68, 67, 67, 65, 63, 63, 63, 62, 62 | 85, 85, 84, 84, 85, 84, 84, 84, 84, 85, 84, 84, 84, 84, 85, 84, 80, 81, 81, 82, 80, 80, 80, 81, 80, 81, 80, 81, 80, 80, 81, 80, 81, 81, 80, 81, 81, 80, 77, 76, 78, 77, 77, 77, 76, 76, 78, 77, 77, 76, 77, 77, 77, 76, 78, 77, 76, 77, 76, 74, 73, 72, 73, 74, 73, 74, 73, 73, 71, 70, 70, 68, 65, 67, 66, 66, 65, 66, 66, 64, 63, 64, 62, 63, 62, 62, 59, 58, 59, 59, 60 | 84, 84, 84, 85, 84, 85, 84, 85, 85, 84, 84, 85, 84, 84, 85, 84, 81, 81, 80, 82, 83, 80, 80, 81, 80, 81, 81, 81, 80, 80, 81, 80, 81, 81, 80, 82, 81, 80, 77, 76, 78, 76, 76, 76, 78, 78, 76, 79, 76, 77, 76, 77, 79, 77, 76, 78, 78, 77, 77, 72, 74, 74, 74, 72, 73, 73, 73, 75, 68, 70, 70, 65, 69, 65, 66, 66, 64, 66, 66, 63, 61, 61, 61, 64, 61, 60, 58, 59, 58, 57, 59 | 84, 86, 85, 84, 85, 84, 84, 85, 84, 84, 86, 84, 84, 84, 85, 84, 80, 82, 80, 83, 80, 80, 81, 80, 81, 81, 81, 81, 80, 80, 81, 81, 81, 81, 80, 80, 81, 80, 77, 77, 79, 78, 77, 76, 77, 76, 78, 77, 78, 76, 77, 79, 78, 77, 77, 79, 76, 77, 76, 75, 74, 73, 74, 75, 75, 73, 73, 73, 71, 70, 70, 67, 65, 69, 66, 66, 67, 64, 67, 64, 63, 64, 64, 63, 62, 63, 60, 58, 57, 60, 61 | 85, 84, 86, 84, 84, 84, 85, 84, 85, 84, 85, 85, 85, 84, 84, 84, 82, 81, 81, 80, 81, 80, 81, 80, 82, 80, 81, 80, 80, 80, 81, 82, 82, 81, 80, 80, 81, 80, 77, 77, 76, 77, 77, 77, 78, 78, 76, 78, 77, 77, 76, 77, 77, 76, 78, 78, 77, 78, 77, 73, 73, 74, 74, 74, 73, 74, 73, 73, 68, 68, 69, 66, 66, 66, 69, 65, 66, 67, 65, 62, 62, 62, 60, 63, 61, 63, 58, 57, 57, 59, 58 | 84, 84, 84, 84, 85, 85, 84, 84, 85, 84, 84, 84, 84, 84, 85, 85, 80, 81, 80, 81, 81, 80, 80, 80, 81, 82, 80, 80, 80, 81, 81, 80, 81, 81, 80, 81, 80, 80, 76, 76, 79, 76, 76, 77, 78, 76, 77, 77, 77, 77, 76, 77, 77, 76, 77, 77, 77, 76, 76, 74, 73, 73, 73, 73, 72, 74, 72, 75, 70, 71, 69, 66, 66, 66, 65, 68, 65, 66, 65, 63, 61, 62, 61, 63, 61, 62, 57, 57, 59, 59, 59 | 84, 85, 86, 85, 86, 84, 84, 84, 84, 84, 85, 84, 84, 85, 84, 84, 81, 81, 81, 80, 80, 82, 80, 80, 82, 81, 81, 80, 81, 81, 80, 82, 82, 80, 80, 80, 80, 81, 76, 77, 76, 78, 76, 77, 76, 77, 78, 76, 77, 77, 78, 77, 76, 77, 77, 78, 77, 77, 76, 75, 73, 74, 74, 74, 73, 72, 72, 72, 70, 69, 69, 65, 64, 67, 66, 65, 69, 65, 66, 61, 62, 63, 62, 61, 62, 64, 58, 57, 57, 60, 57 | 84, 84, 84, 84, 84, 84, 84, 84, 85, 84, 84, 85, 84, 84, 84, 84, 81, 80, 81, 80, 81, 80, 80, 81, 81, 81, 81, 80, 81, 80, 81, 81, 81, 81, 81, 81, 80, 80, 76, 76, 76, 76, 77, 77, 77, 77, 77, 77, 76, 77, 77, 76, 76, 76, 77, 77, 78, 77, 76, 73, 74, 73, 73, 72, 72, 73, 72, 73, 69, 68, 70, 66, 66, 64, 67, 66, 65, 68, 65, 63, 61, 61, 61, 62, 61, 61, 57, 57, 59, 59, 56 | 84, 85, 85, 84, 84, 85, 84, 84, 84, 84, 84, 84, 84, 84, 85, 84, 80, 81, 80, 81, 82, 81, 80, 80, 81, 81, 81, 81, 80, 80, 81, 81, 81, 81, 80, 81, 82, 80, 76, 77, 77, 78, 77, 76, 77, 76, 77, 78, 77, 76, 77, 77, 77, 76, 77, 78, 76, 79, 76, 74, 73, 73, 75, 75, 74, 73, 73, 73, 70, 70, 70, 66, 66, 67, 65, 65, 66, 65, 69, 63, 63, 63, 62, 63, 62, 61, 59, 59, 59, 59, 59 | 83, 83, 83, 83, 82, 83, 82, 83, 83, 83, 83, 83, 83, 83, 84, 83, 78, 79, 78, 80, 78, 78, 78, 78, 79, 79, 79, 79, 78, 78, 80, 79, 79, 80, 78, 79, 79, 78, 74, 73, 75, 76, 74, 74, 74, 74, 74, 75, 76, 74, 75, 75, 75, 74, 75, 76, 75, 75, 74, 72, 71, 71, 71, 72, 72, 70, 70, 71, 68, 67, 67, 64, 63, 64, 62, 63, 61, 63, 63, 63, 58, 59, 59, 59, 58, 58, 54, 54, 53, 54, 55 | 83, 84, 83, 83, 83, 83, 82, 83, 82, 83, 83, 82, 83, 83, 84, 83, 79, 80, 78, 80, 78, 78, 78, 78, 79, 79, 80, 79, 78, 78, 78, 79, 79, 79, 78, 79, 79, 78, 74, 73, 75, 75, 75, 74, 74, 74, 76, 75, 75, 73, 74, 75, 75, 73, 75, 75, 74, 75, 73, 72, 69, 69, 71, 72, 71, 70, 70, 70, 67, 66, 65, 63, 61, 63, 62, 61, 62, 61, 63, 58, 60, 59, 57, 58, 57, 57, 54, 53, 53, 54, 55 | 83, 83, 82, 84, 84, 84, 83, 83, 82, 83, 84, 83, 84, 82, 84, 83, 77, 79, 79, 80, 77, 78, 78, 77, 80, 80, 78, 80, 77, 79, 78, 78, 79, 80, 77, 78, 80, 79, 76, 74, 76, 74, 74, 74, 73, 73, 76, 74, 74, 75, 75, 76, 75, 74, 76, 76, 75, 74, 73, 72, 70, 69, 71, 72, 71, 72, 70, 70, 68, 68, 66, 64, 61, 64, 62, 62, 63, 61, 63, 59, 59, 64, 57, 58, 58, 58, 54, 54, 54, 55, 55 | 82, 84, 82, 82, 83, 82, 82, 83, 82, 83, 84, 83, 82, 84, 83, 83, 78, 78, 78, 79, 77, 80, 80, 79, 78, 78, 78, 78, 79, 77, 79, 78, 78, 78, 78, 78, 78, 77, 74, 76, 75, 76, 75, 73, 75, 74, 75, 74, 76, 73, 76, 76, 74, 75, 73, 74, 74, 75, 73, 70, 72, 70, 69, 69, 70, 69, 71, 70, 67, 66, 68, 62, 61, 64, 60, 61, 62, 61, 62, 59, 57, 57, 63, 57, 60, 58, 54, 52, 53, 54, 53 | 83, 84, 84, 82, 83, 84, 83, 83, 84, 83, 83, 84, 82, 83, 84, 83, 79, 80, 78, 80, 80, 78, 78, 78, 79, 79, 80, 79, 78, 78, 79, 80, 80, 80, 78, 80, 79, 77, 74, 74, 76, 75, 74, 73, 76, 75, 75, 76, 74, 74, 74, 75, 76, 74, 74, 76, 75, 75, 74, 70, 71, 72, 71, 71, 72, 71, 70, 72, 66, 68, 67, 63, 64, 63, 63, 63, 61, 62, 63, 59, 58, 58, 57, 61, 57, 56, 55, 55, 55, 55, 56 | 83, 83, 82, 83, 83, 83, 82, 83, 82, 83, 83, 83, 82, 83, 83, 83, 78, 78, 78, 79, 77, 79, 79, 79, 78, 78, 78, 78, 79, 78, 78, 78, 77, 78, 78, 78, 78, 78, 75, 76, 74, 75, 76, 74, 74, 74, 74, 74, 76, 74, 76, 75, 74, 75, 74, 74, 74, 75, 74, 69, 71, 70, 70, 70, 70, 70, 71, 70, 66, 66, 67, 62, 61, 62, 61, 61, 62, 61, 62, 58, 57, 58, 60, 57, 60, 57, 54, 53, 54, 52, 53 | 83, 83, 83, 83, 84, 82, 82, 82, 82, 82, 84, 82, 83, 83, 82, 82, 78, 78, 79, 78, 77, 78, 79, 78, 79, 78, 78, 78, 78, 79, 78, 79, 79, 78, 78, 77, 79, 79, 73, 74, 73, 75, 75, 75, 74, 74, 74, 73, 75, 75, 75, 75, 73, 74, 76, 75, 74, 74, 73, 72, 70, 70, 70, 71, 69, 70, 70, 68, 66, 65, 65, 62, 60, 63, 63, 62, 64, 61, 61, 58, 57, 58, 58, 56, 57, 60, 53, 51, 51, 54, 52 | 82, 82, 81, 80, 81, 81, 80, 81, 81, 82, 81, 81, 80, 81, 82, 81, 76, 77, 76, 78, 75, 77, 76, 77, 76, 76, 76, 77, 76, 76, 76, 77, 76, 76, 77, 77, 76, 75, 72, 73, 73, 73, 72, 72, 71, 71, 72, 72, 72, 72, 72, 72, 72, 72, 72, 72, 71, 72, 71, 67, 68, 68, 67, 68, 69, 67, 68, 67, 63, 63, 63, 59, 58, 60, 58, 57, 58, 57, 59, 54, 54, 54, 54, 55, 54, 53, 52, 50, 49, 49, 51 | 82, 81, 81, 80, 80, 82, 81, 81, 81, 82, 80, 81, 80, 81, 82, 82, 76, 77, 76, 77, 76, 77, 76, 76, 76, 76, 77, 77, 76, 76, 77, 77, 76, 77, 76, 78, 76, 75, 73, 72, 72, 72, 71, 71, 71, 72, 72, 72, 72, 72, 71, 72, 72, 72, 71, 72, 72, 72, 72, 67, 67, 68, 68, 68, 69, 67, 67, 68, 63, 63, 63, 58, 59, 58, 57, 57, 57, 57, 59, 54, 53, 54, 52, 55, 53, 51, 50, 52, 50, 48, 50 | 81, 81, 80, 80, 81, 82, 81, 81, 81, 82, 80, 82, 80, 81, 83, 82, 76, 76, 76, 77, 76, 76, 75, 76, 76, 77, 77, 76, 76, 76, 76, 76, 76, 77, 76, 77, 76, 76, 72, 72, 73, 72, 72, 72, 72, 71, 72, 72, 72, 71, 72, 71, 72, 72, 72, 72, 72, 72, 71, 66, 67, 67, 67, 68, 67, 68, 67, 68, 63, 64, 63, 59, 58, 57, 57, 59, 57, 59, 59, 53, 53, 54, 53, 55, 54, 51, 49, 50, 52, 48, 50 | 80, 82, 82, 81, 82, 81, 81, 80, 82, 81, 82, 81, 81, 81, 81, 80, 76, 77, 76, 77, 76, 76, 77, 76, 78, 77, 77, 76, 76, 76, 76, 78, 78, 77, 76, 76, 76, 76, 71, 72, 72, 72, 72, 72, 72, 71, 73, 72, 72, 72, 72, 73, 72, 72, 72, 73, 72, 72, 71, 69, 68, 68, 68, 68, 67, 67, 67, 67, 63, 63, 62, 59, 57, 60, 59, 59, 60, 59, 59, 54, 54, 55, 54, 55, 52, 54, 49, 48, 48, 52, 50 | 82, 83, 82, 80, 81, 82, 81, 82, 81, 82, 81, 80, 80, 81, 84, 82, 76, 78, 76, 79, 76, 76, 76, 76, 77, 77, 77, 77, 76, 76, 76, 77, 77, 77, 76, 77, 77, 75, 73, 71, 75, 73, 72, 71, 72, 71, 72, 73, 72, 71, 71, 73, 73, 72, 72, 73, 71, 72, 71, 68, 67, 68, 68, 70, 69, 68, 68, 68, 64, 64, 62, 60, 59, 61, 58, 59, 57, 56, 59, 55, 55, 55, 53, 56, 53, 52, 51, 50, 50, 50, 54 |];
